letting numberLocations be  42
letting costs be function (
(0,0) --> 0,
(0,1) --> 66,
(0,2) --> 61,
(0,3) --> 40,
(0,4) --> 9,
(0,5) --> 24,
(0,6) --> 69,
(0,7) --> 51,
(0,8) --> 60,
(0,9) --> 43,
(0,10) --> 52,
(0,11) --> 40,
(0,12) --> 58,
(0,13) --> 44,
(0,14) --> 67,
(0,15) --> 56,
(0,16) --> 54,
(0,17) --> 48,
(0,18) --> 42,
(0,19) --> 65,
(0,20) --> 18,
(0,21) --> 21,
(0,22) --> 66,
(0,23) --> 64,
(0,24) --> 70,
(0,25) --> 17,
(0,26) --> 46,
(0,27) --> 15,
(0,28) --> 69,
(0,29) --> 17,
(0,30) --> 39,
(0,31) --> 57,
(0,32) --> 16,
(0,33) --> 15,
(0,34) --> 51,
(0,35) --> 12,
(0,36) --> 60,
(0,37) --> 76,
(0,38) --> 58,
(0,39) --> 50,
(0,40) --> 16,
(0,41) --> 12,
(0,42) --> 50,
(1,0) --> 66,
(1,1) --> 0,
(1,2) --> 7,
(1,3) --> 56,
(1,4) --> 68,
(1,5) --> 63,
(1,6) --> 39,
(1,7) --> 18,
(1,8) --> 9,
(1,9) --> 25,
(1,10) --> 15,
(1,11) --> 60,
(1,12) --> 11,
(1,13) --> 62,
(1,14) --> 23,
(1,15) --> 14,
(1,16) --> 16,
(1,17) --> 22,
(1,18) --> 46,
(1,19) --> 24,
(1,20) --> 71,
(1,21) --> 67,
(1,22) --> 47,
(1,23) --> 5,
(1,24) --> 44,
(1,25) --> 76,
(1,26) --> 29,
(1,27) --> 75,
(1,28) --> 23,
(1,29) --> 73,
(1,30) --> 64,
(1,31) --> 11,
(1,32) --> 74,
(1,33) --> 63,
(1,34) --> 21,
(1,35) --> 73,
(1,36) --> 13,
(1,37) --> 11,
(1,38) --> 11,
(1,39) --> 21,
(1,40) --> 79,
(1,41) --> 74,
(1,42) --> 24,
(2,0) --> 61,
(2,1) --> 7,
(2,2) --> 0,
(2,3) --> 49,
(2,4) --> 63,
(2,5) --> 61,
(2,6) --> 33,
(2,7) --> 11,
(2,8) --> 1,
(2,9) --> 19,
(2,10) --> 9,
(2,11) --> 53,
(2,12) --> 4,
(2,13) --> 55,
(2,14) --> 28,
(2,15) --> 7,
(2,16) --> 9,
(2,17) --> 15,
(2,18) --> 46,
(2,19) --> 29,
(2,20) --> 68,
(2,21) --> 64,
(2,22) --> 40,
(2,23) --> 3,
(2,24) --> 38,
(2,25) --> 71,
(2,26) --> 22,
(2,27) --> 69,
(2,28) --> 28,
(2,29) --> 67,
(2,30) --> 57,
(2,31) --> 4,
(2,32) --> 69,
(2,33) --> 60,
(2,34) --> 13,
(2,35) --> 67,
(2,36) --> 6,
(2,37) --> 18,
(2,38) --> 4,
(2,39) --> 14,
(2,40) --> 73,
(2,41) --> 69,
(2,42) --> 17,
(3,0) --> 40,
(3,1) --> 56,
(3,2) --> 49,
(3,3) --> 0,
(3,4) --> 34,
(3,5) --> 58,
(3,6) --> 36,
(3,7) --> 38,
(3,8) --> 47,
(3,9) --> 33,
(3,10) --> 42,
(3,11) --> 4,
(3,12) --> 45,
(3,13) --> 7,
(3,14) --> 70,
(3,15) --> 42,
(3,16) --> 40,
(3,17) --> 34,
(3,18) --> 63,
(3,19) --> 69,
(3,20) --> 57,
(3,21) --> 57,
(3,22) --> 29,
(3,23) --> 52,
(3,24) --> 35,
(3,25) --> 35,
(3,26) --> 27,
(3,27) --> 35,
(3,28) --> 71,
(3,29) --> 31,
(3,30) --> 9,
(3,31) --> 45,
(3,32) --> 34,
(3,33) --> 51,
(3,34) --> 35,
(3,35) --> 36,
(3,36) --> 44,
(3,37) --> 67,
(3,38) --> 45,
(3,39) --> 35,
(3,40) --> 40,
(3,41) --> 38,
(3,42) --> 32,
(4,0) --> 9,
(4,1) --> 68,
(4,2) --> 63,
(4,3) --> 34,
(4,4) --> 0,
(4,5) --> 33,
(4,6) --> 66,
(4,7) --> 52,
(4,8) --> 62,
(4,9) --> 44,
(4,10) --> 54,
(4,11) --> 33,
(4,12) --> 59,
(4,13) --> 37,
(4,14) --> 72,
(4,15) --> 57,
(4,16) --> 55,
(4,17) --> 49,
(4,18) --> 50,
(4,19) --> 70,
(4,20) --> 27,
(4,21) --> 30,
(4,22) --> 61,
(4,23) --> 66,
(4,24) --> 66,
(4,25) --> 9,
(4,26) --> 45,
(4,27) --> 7,
(4,28) --> 74,
(4,29) --> 8,
(4,30) --> 32,
(4,31) --> 58,
(4,32) --> 8,
(4,33) --> 24,
(4,34) --> 51,
(4,35) --> 4,
(4,36) --> 61,
(4,37) --> 79,
(4,38) --> 59,
(4,39) --> 50,
(4,40) --> 11,
(4,41) --> 6,
(4,42) --> 50,
(5,0) --> 24,
(5,1) --> 63,
(5,2) --> 61,
(5,3) --> 58,
(5,4) --> 33,
(5,5) --> 0,
(5,6) --> 79,
(5,7) --> 53,
(5,8) --> 60,
(5,9) --> 47,
(5,10) --> 53,
(5,11) --> 60,
(5,12) --> 59,
(5,13) --> 64,
(5,14) --> 56,
(5,15) --> 58,
(5,16) --> 56,
(5,17) --> 52,
(5,18) --> 24,
(5,19) --> 53,
(5,20) --> 11,
(5,21) --> 5,
(5,22) --> 79,
(5,23) --> 63,
(5,24) --> 81,
(5,25) --> 41,
(5,26) --> 53,
(5,27) --> 39,
(5,28) --> 58,
(5,29) --> 41,
(5,30) --> 60,
(5,31) --> 58,
(5,32) --> 41,
(5,33) --> 9,
(5,34) --> 55,
(5,35) --> 36,
(5,36) --> 62,
(5,37) --> 71,
(5,38) --> 59,
(5,39) --> 54,
(5,40) --> 39,
(5,41) --> 35,
(5,42) --> 56,
(6,0) --> 69,
(6,1) --> 39,
(6,2) --> 33,
(6,3) --> 36,
(6,4) --> 66,
(6,5) --> 79,
(6,6) --> 0,
(6,7) --> 30,
(6,8) --> 32,
(6,9) --> 34,
(6,10) --> 34,
(6,11) --> 39,
(6,12) --> 31,
(6,13) --> 38,
(6,14) --> 61,
(6,15) --> 29,
(6,16) --> 28,
(6,17) --> 29,
(6,18) --> 72,
(6,19) --> 62,
(6,20) --> 82,
(6,21) --> 80,
(6,22) --> 10,
(6,23) --> 34,
(6,24) --> 5,
(6,25) --> 70,
(6,26) --> 25,
(6,27) --> 69,
(6,28) --> 61,
(6,29) --> 66,
(6,30) --> 44,
(6,31) --> 32,
(6,32) --> 68,
(6,33) --> 74,
(6,34) --> 27,
(6,35) --> 69,
(6,36) --> 27,
(6,37) --> 47,
(6,38) --> 30,
(6,39) --> 27,
(6,40) --> 74,
(6,41) --> 71,
(6,42) --> 24,
(7,0) --> 51,
(7,1) --> 18,
(7,2) --> 11,
(7,3) --> 38,
(7,4) --> 52,
(7,5) --> 53,
(7,6) --> 30,
(7,7) --> 0,
(7,8) --> 10,
(7,9) --> 8,
(7,10) --> 4,
(7,11) --> 43,
(7,12) --> 8,
(7,13) --> 45,
(7,14) --> 34,
(7,15) --> 5,
(7,16) --> 3,
(7,17) --> 4,
(7,18) --> 42,
(7,19) --> 33,
(7,20) --> 59,
(7,21) --> 56,
(7,22) --> 35,
(7,23) --> 14,
(7,24) --> 35,
(7,25) --> 59,
(7,26) --> 12,
(7,27) --> 58,
(7,28) --> 34,
(7,29) --> 56,
(7,30) --> 47,
(7,31) --> 7,
(7,32) --> 58,
(7,33) --> 51,
(7,34) --> 4,
(7,35) --> 56,
(7,36) --> 9,
(7,37) --> 29,
(7,38) --> 7,
(7,39) --> 4,
(7,40) --> 63,
(7,41) --> 58,
(7,42) --> 8,
(8,0) --> 60,
(8,1) --> 9,
(8,2) --> 1,
(8,3) --> 47,
(8,4) --> 62,
(8,5) --> 60,
(8,6) --> 32,
(8,7) --> 10,
(8,8) --> 0,
(8,9) --> 18,
(8,10) --> 8,
(8,11) --> 52,
(8,12) --> 2,
(8,13) --> 53,
(8,14) --> 29,
(8,15) --> 6,
(8,16) --> 8,
(8,17) --> 14,
(8,18) --> 45,
(8,19) --> 29,
(8,20) --> 67,
(8,21) --> 63,
(8,22) --> 39,
(8,23) --> 4,
(8,24) --> 37,
(8,25) --> 69,
(8,26) --> 21,
(8,27) --> 68,
(8,28) --> 29,
(8,29) --> 66,
(8,30) --> 56,
(8,31) --> 3,
(8,32) --> 67,
(8,33) --> 59,
(8,34) --> 12,
(8,35) --> 66,
(8,36) --> 5,
(8,37) --> 20,
(8,38) --> 3,
(8,39) --> 13,
(8,40) --> 72,
(8,41) --> 68,
(8,42) --> 16,
(9,0) --> 43,
(9,1) --> 25,
(9,2) --> 19,
(9,3) --> 33,
(9,4) --> 44,
(9,5) --> 47,
(9,6) --> 34,
(9,7) --> 8,
(9,8) --> 18,
(9,9) --> 0,
(9,10) --> 10,
(9,11) --> 37,
(9,12) --> 16,
(9,13) --> 40,
(9,14) --> 37,
(9,15) --> 13,
(9,16) --> 11,
(9,17) --> 5,
(9,18) --> 38,
(9,19) --> 36,
(9,20) --> 52,
(9,21) --> 49,
(9,22) --> 36,
(9,23) --> 22,
(9,24) --> 37,
(9,25) --> 52,
(9,26) --> 9,
(9,27) --> 50,
(9,28) --> 38,
(9,29) --> 48,
(9,30) --> 41,
(9,31) --> 15,
(9,32) --> 50,
(9,33) --> 44,
(9,34) --> 9,
(9,35) --> 48,
(9,36) --> 17,
(9,37) --> 36,
(9,38) --> 15,
(9,39) --> 8,
(9,40) --> 55,
(9,41) --> 50,
(9,42) --> 10,
(10,0) --> 52,
(10,1) --> 15,
(10,2) --> 9,
(10,3) --> 42,
(10,4) --> 54,
(10,5) --> 53,
(10,6) --> 34,
(10,7) --> 4,
(10,8) --> 8,
(10,9) --> 10,
(10,10) --> 0,
(10,11) --> 46,
(10,12) --> 6,
(10,13) --> 49,
(10,14) --> 30,
(10,15) --> 6,
(10,16) --> 5,
(10,17) --> 8,
(10,18) --> 40,
(10,19) --> 29,
(10,20) --> 59,
(10,21) --> 55,
(10,22) --> 39,
(10,23) --> 12,
(10,24) --> 38,
(10,25) --> 62,
(10,26) --> 16,
(10,27) --> 60,
(10,28) --> 30,
(10,29) --> 58,
(10,30) --> 50,
(10,31) --> 5,
(10,32) --> 60,
(10,33) --> 51,
(10,34) --> 8,
(10,35) --> 58,
(10,36) --> 9,
(10,37) --> 26,
(10,38) --> 6,
(10,39) --> 8,
(10,40) --> 65,
(10,41) --> 60,
(10,42) --> 12,
(11,0) --> 40,
(11,1) --> 60,
(11,2) --> 53,
(11,3) --> 4,
(11,4) --> 33,
(11,5) --> 60,
(11,6) --> 39,
(11,7) --> 43,
(11,8) --> 52,
(11,9) --> 37,
(11,10) --> 46,
(11,11) --> 0,
(11,12) --> 50,
(11,13) --> 4,
(11,14) --> 74,
(11,15) --> 46,
(11,16) --> 44,
(11,17) --> 38,
(11,18) --> 66,
(11,19) --> 73,
(11,20) --> 57,
(11,21) --> 59,
(11,22) --> 32,
(11,23) --> 56,
(11,24) --> 38,
(11,25) --> 34,
(11,26) --> 31,
(11,27) --> 34,
(11,28) --> 75,
(11,29) --> 30,
(11,30) --> 4,
(11,31) --> 49,
(11,32) --> 32,
(11,33) --> 52,
(11,34) --> 40,
(11,35) --> 35,
(11,36) --> 48,
(11,37) --> 71,
(11,38) --> 49,
(11,39) --> 39,
(11,40) --> 39,
(11,41) --> 37,
(11,42) --> 36,
(12,0) --> 58,
(12,1) --> 11,
(12,2) --> 4,
(12,3) --> 45,
(12,4) --> 59,
(12,5) --> 59,
(12,6) --> 31,
(12,7) --> 8,
(12,8) --> 2,
(12,9) --> 16,
(12,10) --> 6,
(12,11) --> 50,
(12,12) --> 0,
(12,13) --> 51,
(12,14) --> 30,
(12,15) --> 4,
(12,16) --> 6,
(12,17) --> 12,
(12,18) --> 45,
(12,19) --> 30,
(12,20) --> 65,
(12,21) --> 61,
(12,22) --> 38,
(12,23) --> 7,
(12,24) --> 36,
(12,25) --> 67,
(12,26) --> 18,
(12,27) --> 66,
(12,28) --> 30,
(12,29) --> 64,
(12,30) --> 54,
(12,31) --> 1,
(12,32) --> 65,
(12,33) --> 57,
(12,34) --> 10,
(12,35) --> 64,
(12,36) --> 4,
(12,37) --> 22,
(12,38) --> 1,
(12,39) --> 11,
(12,40) --> 70,
(12,41) --> 66,
(12,42) --> 14,
(13,0) --> 44,
(13,1) --> 62,
(13,2) --> 55,
(13,3) --> 7,
(13,4) --> 37,
(13,5) --> 64,
(13,6) --> 38,
(13,7) --> 45,
(13,8) --> 53,
(13,9) --> 40,
(13,10) --> 49,
(13,11) --> 4,
(13,12) --> 51,
(13,13) --> 0,
(13,14) --> 77,
(13,15) --> 48,
(13,16) --> 46,
(13,17) --> 40,
(13,18) --> 70,
(13,19) --> 76,
(13,20) --> 62,
(13,21) --> 63,
(13,22) --> 30,
(13,23) --> 57,
(13,24) --> 36,
(13,25) --> 38,
(13,26) --> 33,
(13,27) --> 38,
(13,28) --> 78,
(13,29) --> 34,
(13,30) --> 6,
(13,31) --> 51,
(13,32) --> 36,
(13,33) --> 56,
(13,34) --> 41,
(13,35) --> 39,
(13,36) --> 50,
(13,37) --> 73,
(13,38) --> 50,
(13,39) --> 41,
(13,40) --> 43,
(13,41) --> 41,
(13,42) --> 38,
(14,0) --> 67,
(14,1) --> 23,
(14,2) --> 28,
(14,3) --> 70,
(14,4) --> 72,
(14,5) --> 56,
(14,6) --> 61,
(14,7) --> 34,
(14,8) --> 29,
(14,9) --> 37,
(14,10) --> 30,
(14,11) --> 74,
(14,12) --> 30,
(14,13) --> 77,
(14,14) --> 0,
(14,15) --> 33,
(14,16) --> 34,
(14,17) --> 37,
(14,18) --> 33,
(14,19) --> 3,
(14,20) --> 66,
(14,21) --> 60,
(14,22) --> 68,
(14,23) --> 28,
(14,24) --> 66,
(14,25) --> 81,
(14,26) --> 45,
(14,27) --> 79,
(14,28) --> 2,
(14,29) --> 79,
(14,30) --> 78,
(14,31) --> 30,
(14,32) --> 80,
(14,33) --> 59,
(14,34) --> 38,
(14,35) --> 77,
(14,36) --> 34,
(14,37) --> 22,
(14,38) --> 31,
(14,39) --> 38,
(14,40) --> 83,
(14,41) --> 78,
(14,42) --> 42,
(15,0) --> 56,
(15,1) --> 14,
(15,2) --> 7,
(15,3) --> 42,
(15,4) --> 57,
(15,5) --> 58,
(15,6) --> 29,
(15,7) --> 5,
(15,8) --> 6,
(15,9) --> 13,
(15,10) --> 6,
(15,11) --> 46,
(15,12) --> 4,
(15,13) --> 48,
(15,14) --> 33,
(15,15) --> 0,
(15,16) --> 2,
(15,17) --> 9,
(15,18) --> 45,
(15,19) --> 33,
(15,20) --> 64,
(15,21) --> 60,
(15,22) --> 35,
(15,23) --> 10,
(15,24) --> 34,
(15,25) --> 64,
(15,26) --> 15,
(15,27) --> 63,
(15,28) --> 33,
(15,29) --> 61,
(15,30) --> 50,
(15,31) --> 3,
(15,32) --> 62,
(15,33) --> 56,
(15,34) --> 6,
(15,35) --> 61,
(15,36) --> 4,
(15,37) --> 25,
(15,38) --> 3,
(15,39) --> 7,
(15,40) --> 67,
(15,41) --> 63,
(15,42) --> 10,
(16,0) --> 54,
(16,1) --> 16,
(16,2) --> 9,
(16,3) --> 40,
(16,4) --> 55,
(16,5) --> 56,
(16,6) --> 28,
(16,7) --> 3,
(16,8) --> 8,
(16,9) --> 11,
(16,10) --> 5,
(16,11) --> 44,
(16,12) --> 6,
(16,13) --> 46,
(16,14) --> 34,
(16,15) --> 2,
(16,16) --> 0,
(16,17) --> 6,
(16,18) --> 45,
(16,19) --> 34,
(16,20) --> 62,
(16,21) --> 59,
(16,22) --> 34,
(16,23) --> 12,
(16,24) --> 33,
(16,25) --> 62,
(16,26) --> 13,
(16,27) --> 61,
(16,28) --> 35,
(16,29) --> 59,
(16,30) --> 48,
(16,31) --> 5,
(16,32) --> 60,
(16,33) --> 54,
(16,34) --> 4,
(16,35) --> 59,
(16,36) --> 6,
(16,37) --> 28,
(16,38) --> 5,
(16,39) --> 5,
(16,40) --> 65,
(16,41) --> 61,
(16,42) --> 8,
(17,0) --> 48,
(17,1) --> 22,
(17,2) --> 15,
(17,3) --> 34,
(17,4) --> 49,
(17,5) --> 52,
(17,6) --> 29,
(17,7) --> 4,
(17,8) --> 14,
(17,9) --> 5,
(17,10) --> 8,
(17,11) --> 38,
(17,12) --> 12,
(17,13) --> 40,
(17,14) --> 37,
(17,15) --> 9,
(17,16) --> 6,
(17,17) --> 0,
(17,18) --> 43,
(17,19) --> 37,
(17,20) --> 57,
(17,21) --> 54,
(17,22) --> 33,
(17,23) --> 18,
(17,24) --> 33,
(17,25) --> 56,
(17,26) --> 8,
(17,27) --> 54,
(17,28) --> 38,
(17,29) --> 52,
(17,30) --> 43,
(17,31) --> 11,
(17,32) --> 54,
(17,33) --> 49,
(17,34) --> 3,
(17,35) --> 53,
(17,36) --> 12,
(17,37) --> 33,
(17,38) --> 11,
(17,39) --> 2,
(17,40) --> 59,
(17,41) --> 55,
(17,42) --> 5,
(18,0) --> 42,
(18,1) --> 46,
(18,2) --> 46,
(18,3) --> 63,
(18,4) --> 50,
(18,5) --> 24,
(18,6) --> 72,
(18,7) --> 42,
(18,8) --> 45,
(18,9) --> 38,
(18,10) --> 40,
(18,11) --> 66,
(18,12) --> 45,
(18,13) --> 70,
(18,14) --> 33,
(18,15) --> 45,
(18,16) --> 45,
(18,17) --> 43,
(18,18) --> 0,
(18,19) --> 30,
(18,20) --> 35,
(18,21) --> 29,
(18,22) --> 75,
(18,23) --> 47,
(18,24) --> 76,
(18,25) --> 59,
(18,26) --> 47,
(18,27) --> 57,
(18,28) --> 35,
(18,29) --> 58,
(18,30) --> 68,
(18,31) --> 44,
(18,32) --> 58,
(18,33) --> 30,
(18,34) --> 45,
(18,35) --> 54,
(18,36) --> 49,
(18,37) --> 51,
(18,38) --> 45,
(18,39) --> 45,
(18,40) --> 59,
(18,41) --> 54,
(18,42) --> 48,
(19,0) --> 65,
(19,1) --> 24,
(19,2) --> 29,
(19,3) --> 69,
(19,4) --> 70,
(19,5) --> 53,
(19,6) --> 62,
(19,7) --> 33,
(19,8) --> 29,
(19,9) --> 36,
(19,10) --> 29,
(19,11) --> 73,
(19,12) --> 30,
(19,13) --> 76,
(19,14) --> 3,
(19,15) --> 33,
(19,16) --> 34,
(19,17) --> 37,
(19,18) --> 30,
(19,19) --> 0,
(19,20) --> 63,
(19,21) --> 57,
(19,22) --> 68,
(19,23) --> 28,
(19,24) --> 66,
(19,25) --> 79,
(19,26) --> 44,
(19,27) --> 77,
(19,28) --> 5,
(19,29) --> 76,
(19,30) --> 76,
(19,31) --> 30,
(19,32) --> 77,
(19,33) --> 56,
(19,34) --> 37,
(19,35) --> 74,
(19,36) --> 34,
(19,37) --> 24,
(19,38) --> 31,
(19,39) --> 37,
(19,40) --> 80,
(19,41) --> 75,
(19,42) --> 41,
(20,0) --> 18,
(20,1) --> 71,
(20,2) --> 68,
(20,3) --> 57,
(20,4) --> 27,
(20,5) --> 11,
(20,6) --> 82,
(20,7) --> 59,
(20,8) --> 67,
(20,9) --> 52,
(20,10) --> 59,
(20,11) --> 57,
(20,12) --> 65,
(20,13) --> 62,
(20,14) --> 66,
(20,15) --> 64,
(20,16) --> 62,
(20,17) --> 57,
(20,18) --> 35,
(20,19) --> 63,
(20,20) --> 0,
(20,21) --> 6,
(20,22) --> 80,
(20,23) --> 71,
(20,24) --> 84,
(20,25) --> 33,
(20,26) --> 57,
(20,27) --> 31,
(20,28) --> 68,
(20,29) --> 34,
(20,30) --> 57,
(20,31) --> 64,
(20,32) --> 33,
(20,33) --> 8,
(20,34) --> 60,
(20,35) --> 28,
(20,36) --> 68,
(20,37) --> 80,
(20,38) --> 66,
(20,39) --> 59,
(20,40) --> 30,
(20,41) --> 27,
(20,42) --> 61,
(21,0) --> 21,
(21,1) --> 67,
(21,2) --> 64,
(21,3) --> 57,
(21,4) --> 30,
(21,5) --> 5,
(21,6) --> 80,
(21,7) --> 56,
(21,8) --> 63,
(21,9) --> 49,
(21,10) --> 55,
(21,11) --> 59,
(21,12) --> 61,
(21,13) --> 63,
(21,14) --> 60,
(21,15) --> 60,
(21,16) --> 59,
(21,17) --> 54,
(21,18) --> 29,
(21,19) --> 57,
(21,20) --> 6,
(21,21) --> 0,
(21,22) --> 79,
(21,23) --> 66,
(21,24) --> 82,
(21,25) --> 37,
(21,26) --> 55,
(21,27) --> 35,
(21,28) --> 62,
(21,29) --> 38,
(21,30) --> 59,
(21,31) --> 60,
(21,32) --> 37,
(21,33) --> 7,
(21,34) --> 57,
(21,35) --> 32,
(21,36) --> 65,
(21,37) --> 75,
(21,38) --> 62,
(21,39) --> 56,
(21,40) --> 35,
(21,41) --> 31,
(21,42) --> 58,
(22,0) --> 66,
(22,1) --> 47,
(22,2) --> 40,
(22,3) --> 29,
(22,4) --> 61,
(22,5) --> 79,
(22,6) --> 10,
(22,7) --> 35,
(22,8) --> 39,
(22,9) --> 36,
(22,10) --> 39,
(22,11) --> 32,
(22,12) --> 38,
(22,13) --> 30,
(22,14) --> 68,
(22,15) --> 35,
(22,16) --> 34,
(22,17) --> 33,
(22,18) --> 75,
(22,19) --> 68,
(22,20) --> 80,
(22,21) --> 79,
(22,22) --> 0,
(22,23) --> 42,
(22,24) --> 6,
(22,25) --> 65,
(22,26) --> 27,
(22,27) --> 64,
(22,28) --> 68,
(22,29) --> 60,
(22,30) --> 36,
(22,31) --> 38,
(22,32) --> 63,
(22,33) --> 73,
(22,34) --> 31,
(22,35) --> 64,
(22,36) --> 34,
(22,37) --> 56,
(22,38) --> 37,
(22,39) --> 32,
(22,40) --> 69,
(22,41) --> 66,
(22,42) --> 28,
(23,0) --> 64,
(23,1) --> 5,
(23,2) --> 3,
(23,3) --> 52,
(23,4) --> 66,
(23,5) --> 63,
(23,6) --> 34,
(23,7) --> 14,
(23,8) --> 4,
(23,9) --> 22,
(23,10) --> 12,
(23,11) --> 56,
(23,12) --> 7,
(23,13) --> 57,
(23,14) --> 28,
(23,15) --> 10,
(23,16) --> 12,
(23,17) --> 18,
(23,18) --> 47,
(23,19) --> 28,
(23,20) --> 71,
(23,21) --> 66,
(23,22) --> 42,
(23,23) --> 0,
(23,24) --> 39,
(23,25) --> 74,
(23,26) --> 25,
(23,27) --> 72,
(23,28) --> 27,
(23,29) --> 70,
(23,30) --> 60,
(23,31) --> 8,
(23,32) --> 72,
(23,33) --> 63,
(23,34) --> 16,
(23,35) --> 70,
(23,36) --> 8,
(23,37) --> 16,
(23,38) --> 7,
(23,39) --> 17,
(23,40) --> 77,
(23,41) --> 72,
(23,42) --> 20,
(24,0) --> 70,
(24,1) --> 44,
(24,2) --> 38,
(24,3) --> 35,
(24,4) --> 66,
(24,5) --> 81,
(24,6) --> 5,
(24,7) --> 35,
(24,8) --> 37,
(24,9) --> 37,
(24,10) --> 38,
(24,11) --> 38,
(24,12) --> 36,
(24,13) --> 36,
(24,14) --> 66,
(24,15) --> 34,
(24,16) --> 33,
(24,17) --> 33,
(24,18) --> 76,
(24,19) --> 66,
(24,20) --> 84,
(24,21) --> 82,
(24,22) --> 6,
(24,23) --> 39,
(24,24) --> 0,
(24,25) --> 70,
(24,26) --> 29,
(24,27) --> 69,
(24,28) --> 66,
(24,29) --> 66,
(24,30) --> 42,
(24,31) --> 36,
(24,32) --> 68,
(24,33) --> 76,
(24,34) --> 31,
(24,35) --> 69,
(24,36) --> 32,
(24,37) --> 52,
(24,38) --> 35,
(24,39) --> 31,
(24,40) --> 74,
(24,41) --> 71,
(24,42) --> 28,
(25,0) --> 17,
(25,1) --> 76,
(25,2) --> 71,
(25,3) --> 35,
(25,4) --> 9,
(25,5) --> 41,
(25,6) --> 70,
(25,7) --> 59,
(25,8) --> 69,
(25,9) --> 52,
(25,10) --> 62,
(25,11) --> 34,
(25,12) --> 67,
(25,13) --> 38,
(25,14) --> 81,
(25,15) --> 64,
(25,16) --> 62,
(25,17) --> 56,
(25,18) --> 59,
(25,19) --> 79,
(25,20) --> 33,
(25,21) --> 37,
(25,22) --> 65,
(25,23) --> 74,
(25,24) --> 70,
(25,25) --> 0,
(25,26) --> 51,
(25,27) --> 2,
(25,28) --> 83,
(25,29) --> 4,
(25,30) --> 32,
(25,31) --> 66,
(25,32) --> 2,
(25,33) --> 32,
(25,34) --> 58,
(25,35) --> 5,
(25,36) --> 68,
(25,37) --> 87,
(25,38) --> 67,
(25,39) --> 57,
(25,40) --> 5,
(25,41) --> 6,
(25,42) --> 57,
(26,0) --> 46,
(26,1) --> 29,
(26,2) --> 22,
(26,3) --> 27,
(26,4) --> 45,
(26,5) --> 53,
(26,6) --> 25,
(26,7) --> 12,
(26,8) --> 21,
(26,9) --> 9,
(26,10) --> 16,
(26,11) --> 31,
(26,12) --> 18,
(26,13) --> 33,
(26,14) --> 45,
(26,15) --> 15,
(26,16) --> 13,
(26,17) --> 8,
(26,18) --> 47,
(26,19) --> 44,
(26,20) --> 57,
(26,21) --> 55,
(26,22) --> 27,
(26,23) --> 25,
(26,24) --> 29,
(26,25) --> 51,
(26,26) --> 0,
(26,27) --> 50,
(26,28) --> 46,
(26,29) --> 48,
(26,30) --> 35,
(26,31) --> 18,
(26,32) --> 49,
(26,33) --> 49,
(26,34) --> 8,
(26,35) --> 49,
(26,36) --> 17,
(26,37) --> 40,
(26,38) --> 18,
(26,39) --> 8,
(26,40) --> 55,
(26,41) --> 51,
(26,42) --> 5,
(27,0) --> 15,
(27,1) --> 75,
(27,2) --> 69,
(27,3) --> 35,
(27,4) --> 7,
(27,5) --> 39,
(27,6) --> 69,
(27,7) --> 58,
(27,8) --> 68,
(27,9) --> 50,
(27,10) --> 60,
(27,11) --> 34,
(27,12) --> 66,
(27,13) --> 38,
(27,14) --> 79,
(27,15) --> 63,
(27,16) --> 61,
(27,17) --> 54,
(27,18) --> 57,
(27,19) --> 77,
(27,20) --> 31,
(27,21) --> 35,
(27,22) --> 64,
(27,23) --> 72,
(27,24) --> 69,
(27,25) --> 2,
(27,26) --> 50,
(27,27) --> 0,
(27,28) --> 81,
(27,29) --> 4,
(27,30) --> 32,
(27,31) --> 65,
(27,32) --> 2,
(27,33) --> 30,
(27,34) --> 57,
(27,35) --> 3,
(27,36) --> 66,
(27,37) --> 86,
(27,38) --> 65,
(27,39) --> 56,
(27,40) --> 5,
(27,41) --> 4,
(27,42) --> 55,
(28,0) --> 69,
(28,1) --> 23,
(28,2) --> 28,
(28,3) --> 71,
(28,4) --> 74,
(28,5) --> 58,
(28,6) --> 61,
(28,7) --> 34,
(28,8) --> 29,
(28,9) --> 38,
(28,10) --> 30,
(28,11) --> 75,
(28,12) --> 30,
(28,13) --> 78,
(28,14) --> 2,
(28,15) --> 33,
(28,16) --> 35,
(28,17) --> 38,
(28,18) --> 35,
(28,19) --> 5,
(28,20) --> 68,
(28,21) --> 62,
(28,22) --> 68,
(28,23) --> 27,
(28,24) --> 66,
(28,25) --> 83,
(28,26) --> 46,
(28,27) --> 81,
(28,28) --> 0,
(28,29) --> 80,
(28,30) --> 79,
(28,31) --> 30,
(28,32) --> 81,
(28,33) --> 61,
(28,34) --> 38,
(28,35) --> 78,
(28,36) --> 34,
(28,37) --> 21,
(28,38) --> 31,
(28,39) --> 38,
(28,40) --> 84,
(28,41) --> 79,
(28,42) --> 42,
(29,0) --> 17,
(29,1) --> 73,
(29,2) --> 67,
(29,3) --> 31,
(29,4) --> 8,
(29,5) --> 41,
(29,6) --> 66,
(29,7) --> 56,
(29,8) --> 66,
(29,9) --> 48,
(29,10) --> 58,
(29,11) --> 30,
(29,12) --> 64,
(29,13) --> 34,
(29,14) --> 79,
(29,15) --> 61,
(29,16) --> 59,
(29,17) --> 52,
(29,18) --> 58,
(29,19) --> 76,
(29,20) --> 34,
(29,21) --> 38,
(29,22) --> 60,
(29,23) --> 70,
(29,24) --> 66,
(29,25) --> 4,
(29,26) --> 48,
(29,27) --> 4,
(29,28) --> 80,
(29,29) --> 0,
(29,30) --> 28,
(29,31) --> 63,
(29,32) --> 2,
(29,33) --> 32,
(29,34) --> 55,
(29,35) --> 6,
(29,36) --> 64,
(29,37) --> 84,
(29,38) --> 63,
(29,39) --> 54,
(29,40) --> 9,
(29,41) --> 8,
(29,42) --> 53,
(30,0) --> 39,
(30,1) --> 64,
(30,2) --> 57,
(30,3) --> 9,
(30,4) --> 32,
(30,5) --> 60,
(30,6) --> 44,
(30,7) --> 47,
(30,8) --> 56,
(30,9) --> 41,
(30,10) --> 50,
(30,11) --> 4,
(30,12) --> 54,
(30,13) --> 6,
(30,14) --> 78,
(30,15) --> 50,
(30,16) --> 48,
(30,17) --> 43,
(30,18) --> 68,
(30,19) --> 76,
(30,20) --> 57,
(30,21) --> 59,
(30,22) --> 36,
(30,23) --> 60,
(30,24) --> 42,
(30,25) --> 32,
(30,26) --> 35,
(30,27) --> 32,
(30,28) --> 79,
(30,29) --> 28,
(30,30) --> 0,
(30,31) --> 53,
(30,32) --> 30,
(30,33) --> 52,
(30,34) --> 44,
(30,35) --> 33,
(30,36) --> 52,
(30,37) --> 76,
(30,38) --> 53,
(30,39) --> 43,
(30,40) --> 37,
(30,41) --> 35,
(30,42) --> 40,
(31,0) --> 57,
(31,1) --> 11,
(31,2) --> 4,
(31,3) --> 45,
(31,4) --> 58,
(31,5) --> 58,
(31,6) --> 32,
(31,7) --> 7,
(31,8) --> 3,
(31,9) --> 15,
(31,10) --> 5,
(31,11) --> 49,
(31,12) --> 1,
(31,13) --> 51,
(31,14) --> 30,
(31,15) --> 3,
(31,16) --> 5,
(31,17) --> 11,
(31,18) --> 44,
(31,19) --> 30,
(31,20) --> 64,
(31,21) --> 60,
(31,22) --> 38,
(31,23) --> 8,
(31,24) --> 36,
(31,25) --> 66,
(31,26) --> 18,
(31,27) --> 65,
(31,28) --> 30,
(31,29) --> 63,
(31,30) --> 53,
(31,31) --> 0,
(31,32) --> 64,
(31,33) --> 56,
(31,34) --> 9,
(31,35) --> 63,
(31,36) --> 5,
(31,37) --> 23,
(31,38) --> 1,
(31,39) --> 10,
(31,40) --> 69,
(31,41) --> 65,
(31,42) --> 13,
(32,0) --> 16,
(32,1) --> 74,
(32,2) --> 69,
(32,3) --> 34,
(32,4) --> 8,
(32,5) --> 41,
(32,6) --> 68,
(32,7) --> 58,
(32,8) --> 67,
(32,9) --> 50,
(32,10) --> 60,
(32,11) --> 32,
(32,12) --> 65,
(32,13) --> 36,
(32,14) --> 80,
(32,15) --> 62,
(32,16) --> 60,
(32,17) --> 54,
(32,18) --> 58,
(32,19) --> 77,
(32,20) --> 33,
(32,21) --> 37,
(32,22) --> 63,
(32,23) --> 72,
(32,24) --> 68,
(32,25) --> 2,
(32,26) --> 49,
(32,27) --> 2,
(32,28) --> 81,
(32,29) --> 2,
(32,30) --> 30,
(32,31) --> 64,
(32,32) --> 0,
(32,33) --> 32,
(32,34) --> 57,
(32,35) --> 5,
(32,36) --> 66,
(32,37) --> 85,
(32,38) --> 65,
(32,39) --> 56,
(32,40) --> 7,
(32,41) --> 6,
(32,42) --> 55,
(33,0) --> 15,
(33,1) --> 63,
(33,2) --> 60,
(33,3) --> 51,
(33,4) --> 24,
(33,5) --> 9,
(33,6) --> 74,
(33,7) --> 51,
(33,8) --> 59,
(33,9) --> 44,
(33,10) --> 51,
(33,11) --> 52,
(33,12) --> 57,
(33,13) --> 56,
(33,14) --> 59,
(33,15) --> 56,
(33,16) --> 54,
(33,17) --> 49,
(33,18) --> 30,
(33,19) --> 56,
(33,20) --> 8,
(33,21) --> 7,
(33,22) --> 73,
(33,23) --> 63,
(33,24) --> 76,
(33,25) --> 32,
(33,26) --> 49,
(33,27) --> 30,
(33,28) --> 61,
(33,29) --> 32,
(33,30) --> 52,
(33,31) --> 56,
(33,32) --> 32,
(33,33) --> 0,
(33,34) --> 52,
(33,35) --> 27,
(33,36) --> 60,
(33,37) --> 72,
(33,38) --> 57,
(33,39) --> 51,
(33,40) --> 30,
(33,41) --> 26,
(33,42) --> 53,
(34,0) --> 51,
(34,1) --> 21,
(34,2) --> 13,
(34,3) --> 35,
(34,4) --> 51,
(34,5) --> 55,
(34,6) --> 27,
(34,7) --> 4,
(34,8) --> 12,
(34,9) --> 9,
(34,10) --> 8,
(34,11) --> 40,
(34,12) --> 10,
(34,13) --> 41,
(34,14) --> 38,
(34,15) --> 6,
(34,16) --> 4,
(34,17) --> 3,
(34,18) --> 45,
(34,19) --> 37,
(34,20) --> 60,
(34,21) --> 57,
(34,22) --> 31,
(34,23) --> 16,
(34,24) --> 31,
(34,25) --> 58,
(34,26) --> 8,
(34,27) --> 57,
(34,28) --> 38,
(34,29) --> 55,
(34,30) --> 44,
(34,31) --> 9,
(34,32) --> 57,
(34,33) --> 52,
(34,34) --> 0,
(34,35) --> 56,
(34,36) --> 9,
(34,37) --> 32,
(34,38) --> 9,
(34,39) --> 1,
(34,40) --> 62,
(34,41) --> 57,
(34,42) --> 4,
(35,0) --> 12,
(35,1) --> 73,
(35,2) --> 67,
(35,3) --> 36,
(35,4) --> 4,
(35,5) --> 36,
(35,6) --> 69,
(35,7) --> 56,
(35,8) --> 66,
(35,9) --> 48,
(35,10) --> 58,
(35,11) --> 35,
(35,12) --> 64,
(35,13) --> 39,
(35,14) --> 77,
(35,15) --> 61,
(35,16) --> 59,
(35,17) --> 53,
(35,18) --> 54,
(35,19) --> 74,
(35,20) --> 28,
(35,21) --> 32,
(35,22) --> 64,
(35,23) --> 70,
(35,24) --> 69,
(35,25) --> 5,
(35,26) --> 49,
(35,27) --> 3,
(35,28) --> 78,
(35,29) --> 6,
(35,30) --> 33,
(35,31) --> 63,
(35,32) --> 5,
(35,33) --> 27,
(35,34) --> 56,
(35,35) --> 0,
(35,36) --> 65,
(35,37) --> 84,
(35,38) --> 64,
(35,39) --> 55,
(35,40) --> 6,
(35,41) --> 2,
(35,42) --> 54,
(36,0) --> 60,
(36,1) --> 13,
(36,2) --> 6,
(36,3) --> 44,
(36,4) --> 61,
(36,5) --> 62,
(36,6) --> 27,
(36,7) --> 9,
(36,8) --> 5,
(36,9) --> 17,
(36,10) --> 9,
(36,11) --> 48,
(36,12) --> 4,
(36,13) --> 50,
(36,14) --> 34,
(36,15) --> 4,
(36,16) --> 6,
(36,17) --> 12,
(36,18) --> 49,
(36,19) --> 34,
(36,20) --> 68,
(36,21) --> 65,
(36,22) --> 34,
(36,23) --> 8,
(36,24) --> 32,
(36,25) --> 68,
(36,26) --> 17,
(36,27) --> 66,
(36,28) --> 34,
(36,29) --> 64,
(36,30) --> 52,
(36,31) --> 5,
(36,32) --> 66,
(36,33) --> 60,
(36,34) --> 9,
(36,35) --> 65,
(36,36) --> 0,
(36,37) --> 24,
(36,38) --> 4,
(36,39) --> 10,
(36,40) --> 71,
(36,41) --> 67,
(36,42) --> 12,
(37,0) --> 76,
(37,1) --> 11,
(37,2) --> 18,
(37,3) --> 67,
(37,4) --> 79,
(37,5) --> 71,
(37,6) --> 47,
(37,7) --> 29,
(37,8) --> 20,
(37,9) --> 36,
(37,10) --> 26,
(37,11) --> 71,
(37,12) --> 22,
(37,13) --> 73,
(37,14) --> 22,
(37,15) --> 25,
(37,16) --> 28,
(37,17) --> 33,
(37,18) --> 51,
(37,19) --> 24,
(37,20) --> 80,
(37,21) --> 75,
(37,22) --> 56,
(37,23) --> 16,
(37,24) --> 52,
(37,25) --> 87,
(37,26) --> 40,
(37,27) --> 86,
(37,28) --> 21,
(37,29) --> 84,
(37,30) --> 76,
(37,31) --> 23,
(37,32) --> 85,
(37,33) --> 72,
(37,34) --> 32,
(37,35) --> 84,
(37,36) --> 24,
(37,37) --> 0,
(37,38) --> 23,
(37,39) --> 33,
(37,40) --> 90,
(37,41) --> 85,
(37,42) --> 35,
(38,0) --> 58,
(38,1) --> 11,
(38,2) --> 4,
(38,3) --> 45,
(38,4) --> 59,
(38,5) --> 59,
(38,6) --> 30,
(38,7) --> 7,
(38,8) --> 3,
(38,9) --> 15,
(38,10) --> 6,
(38,11) --> 49,
(38,12) --> 1,
(38,13) --> 50,
(38,14) --> 31,
(38,15) --> 3,
(38,16) --> 5,
(38,17) --> 11,
(38,18) --> 45,
(38,19) --> 31,
(38,20) --> 66,
(38,21) --> 62,
(38,22) --> 37,
(38,23) --> 7,
(38,24) --> 35,
(38,25) --> 67,
(38,26) --> 18,
(38,27) --> 65,
(38,28) --> 31,
(38,29) --> 63,
(38,30) --> 53,
(38,31) --> 1,
(38,32) --> 65,
(38,33) --> 57,
(38,34) --> 9,
(38,35) --> 64,
(38,36) --> 4,
(38,37) --> 23,
(38,38) --> 0,
(38,39) --> 10,
(38,40) --> 70,
(38,41) --> 65,
(38,42) --> 13,
(39,0) --> 50,
(39,1) --> 21,
(39,2) --> 14,
(39,3) --> 35,
(39,4) --> 50,
(39,5) --> 54,
(39,6) --> 27,
(39,7) --> 4,
(39,8) --> 13,
(39,9) --> 8,
(39,10) --> 8,
(39,11) --> 39,
(39,12) --> 11,
(39,13) --> 41,
(39,14) --> 38,
(39,15) --> 7,
(39,16) --> 5,
(39,17) --> 2,
(39,18) --> 45,
(39,19) --> 37,
(39,20) --> 59,
(39,21) --> 56,
(39,22) --> 32,
(39,23) --> 17,
(39,24) --> 31,
(39,25) --> 57,
(39,26) --> 8,
(39,27) --> 56,
(39,28) --> 38,
(39,29) --> 54,
(39,30) --> 43,
(39,31) --> 10,
(39,32) --> 56,
(39,33) --> 51,
(39,34) --> 1,
(39,35) --> 55,
(39,36) --> 10,
(39,37) --> 33,
(39,38) --> 10,
(39,39) --> 0,
(39,40) --> 61,
(39,41) --> 56,
(39,42) --> 4,
(40,0) --> 16,
(40,1) --> 79,
(40,2) --> 73,
(40,3) --> 40,
(40,4) --> 11,
(40,5) --> 39,
(40,6) --> 74,
(40,7) --> 63,
(40,8) --> 72,
(40,9) --> 55,
(40,10) --> 65,
(40,11) --> 39,
(40,12) --> 70,
(40,13) --> 43,
(40,14) --> 83,
(40,15) --> 67,
(40,16) --> 65,
(40,17) --> 59,
(40,18) --> 59,
(40,19) --> 80,
(40,20) --> 30,
(40,21) --> 35,
(40,22) --> 69,
(40,23) --> 77,
(40,24) --> 74,
(40,25) --> 5,
(40,26) --> 55,
(40,27) --> 5,
(40,28) --> 84,
(40,29) --> 9,
(40,30) --> 37,
(40,31) --> 69,
(40,32) --> 7,
(40,33) --> 30,
(40,34) --> 62,
(40,35) --> 6,
(40,36) --> 71,
(40,37) --> 90,
(40,38) --> 70,
(40,39) --> 61,
(40,40) --> 0,
(40,41) --> 5,
(40,42) --> 60,
(41,0) --> 12,
(41,1) --> 74,
(41,2) --> 69,
(41,3) --> 38,
(41,4) --> 6,
(41,5) --> 35,
(41,6) --> 71,
(41,7) --> 58,
(41,8) --> 68,
(41,9) --> 50,
(41,10) --> 60,
(41,11) --> 37,
(41,12) --> 66,
(41,13) --> 41,
(41,14) --> 78,
(41,15) --> 63,
(41,16) --> 61,
(41,17) --> 55,
(41,18) --> 54,
(41,19) --> 75,
(41,20) --> 27,
(41,21) --> 31,
(41,22) --> 66,
(41,23) --> 72,
(41,24) --> 71,
(41,25) --> 6,
(41,26) --> 51,
(41,27) --> 4,
(41,28) --> 79,
(41,29) --> 8,
(41,30) --> 35,
(41,31) --> 65,
(41,32) --> 6,
(41,33) --> 26,
(41,34) --> 57,
(41,35) --> 2,
(41,36) --> 67,
(41,37) --> 85,
(41,38) --> 65,
(41,39) --> 56,
(41,40) --> 5,
(41,41) --> 0,
(41,42) --> 56,
(42,0) --> 50,
(42,1) --> 24,
(42,2) --> 17,
(42,3) --> 32,
(42,4) --> 50,
(42,5) --> 56,
(42,6) --> 24,
(42,7) --> 8,
(42,8) --> 16,
(42,9) --> 10,
(42,10) --> 12,
(42,11) --> 36,
(42,12) --> 14,
(42,13) --> 38,
(42,14) --> 42,
(42,15) --> 10,
(42,16) --> 8,
(42,17) --> 5,
(42,18) --> 48,
(42,19) --> 41,
(42,20) --> 61,
(42,21) --> 58,
(42,22) --> 28,
(42,23) --> 20,
(42,24) --> 28,
(42,25) --> 57,
(42,26) --> 5,
(42,27) --> 55,
(42,28) --> 42,
(42,29) --> 53,
(42,30) --> 40,
(42,31) --> 13,
(42,32) --> 55,
(42,33) --> 53,
(42,34) --> 4,
(42,35) --> 54,
(42,36) --> 12,
(42,37) --> 35,
(42,38) --> 13,
(42,39) --> 4,
(42,40) --> 60,
(42,41) --> 56,
(42,42) --> 0)
letting orderWeights be function (
1 --> 25
,
2 --> 19
,
3 --> 8
,
4 --> 10
,
5 --> 1
,
6 --> 14
,
7 --> 11
,
8 --> 20
,
9 --> 23
,
10 --> 3
,
11 --> 4
,
12 --> 6
,
13 --> 23
,
14 --> 7
,
15 --> 15
,
16 --> 13
,
17 --> 3
,
18 --> 11
,
19 --> 24
,
20 --> 8
,
21 --> 14
,
22 --> 8
,
23 --> 9
,
24 --> 24
,
25 --> 10
,
26 --> 19
,
27 --> 10
,
28 --> 5
,
29 --> 7
,
30 --> 23
,
31 --> 11
,
32 --> 12
,
33 --> 4
,
34 --> 11
,
35 --> 16
,
36 --> 22
,
37 --> 24
,
38 --> 12
,
39 --> 5
,
40 --> 11
,
41 --> 7
,
42 --> 9
)
letting vehicleCapacity be 100
